500
[51,54,57,58,63,64,65,67,69,70,71,74,75,77,78,79,80,82,84,86,87,88,89,90,92,94,95,96,97,98,99,100,101,102,104,105,107,108,109,110,112,113,114,115,118,119,120,122,124,126,129,131,132,133,134,135,136,138,141,142,143,144,146,148,149,152,153,155,157,160,161,163,164,165,166,167,168,170,172,173,174,175,176,179,180,181,182,183,184,185,186,187,188,189,190,191,192,193,194,195,197,198,199,203,204,205,209,210,212,214,216,217,219,220,222,225,226,227,228,229,231,233,234,236,239,240,241,242,243,246,249,250,251,252,253,254,255,256,257,260,261,262,263,264,265,266,267,268,271,272,273,274,277,278,279,280,281,282,283,284,285,286,287,288,290,291,292,293,294,295,296,297,298,300,301,305,306,307,309,311,312,313,314,316,317,319,322,324,325,326,327,329,331,332,333,335,336,338,339,341,342,343,345,346,347,348,351,353,355,356,357,360,361,362,366,367,368,370,371,372,373,375,376,377,378,379,380,381,382,383,384,385,386,387,388,389,390,394,395,396,397,398,399,400]
[5,1,1,1,3,2,1,1,2,2,2,1,1,1,2,2,3,1,2,1,2,3,1,4,1,2,1,1,1,1,1,4,2,1,3,3,3,2,1,4,1,1,1,4,1,5,3,1,1,2,1,1,1,1,2,1,1,2,1,1,1,1,1,1,3,1,1,1,1,1,1,1,1,1,2,1,4,3,2,1,2,5,1,1,1,1,1,2,1,1,2,3,1,2,1,1,2,1,1,2,1,2,2,1,1,1,1,1,1,1,1,1,1,3,3,2,2,2,2,1,3,2,2,3,2,1,1,2,2,1,1,2,1,1,1,4,5,1,3,1,2,2,2,2,1,1,2,1,1,1,1,1,1,1,1,3,1,1,1,2,1,1,1,4,4,4,1,2,1,3,2,1,2,1,2,2,1,1,1,1,2,1,3,2,2,1,3,1,1,1,1,2,3,1,2,1,1,1,1,1,1,2,1,3,1,1,1,1,1,2,1,2,1,2,2,2,1,1,2,1,1,1,3,1,1,4,1,1,1,3,1,1,1,2,3,2,1,1,3,1,1,2,1,1]
